7916
44, 46, 28, 27, 26, 47, 13, 14, 52, 11, 51, 12, 25, 4, 6, 5, 38, 40, 39, 36, 35, 34, 37, 48, 24, 15, 43, 33, 10, 9, 8, 41, 19, 45, 32, 49, 1, 22, 31, 18, 3, 17, 21, 42, 7, 2, 30, 23, 20, 50, 29, 16
